\ Model knapsack_80_1_5
\ LP format - for model browsing. Use MPS format to capture full model detail.
\ Signature: 0x16350109bf62a368
Minimize
  55.99 x[0] + 93.45 x[1] + 61.69 x[2] + 189.16 x[3] + 68.86 x[4]
   + 54.7 x[5] + 165.13 x[6] + 186.65 x[7] + 50.7 x[8] + 49.56 x[9]
   + 22.58 x[10] + 52.16 x[11] + 176.75 x[12] + 66.33 x[13] + 156.49 x[14]
   + 64.24 x[15] + 18.75 x[16] + 29.77 x[17] + 76.87 x[18] + 82.86 x[19]
   + 67.5 x[20] + 21.48 x[21] + 159.83 x[22] + 138.9 x[23] + 137 x[24]
   + 90.32 x[25] + 93.81 x[26] + 26.49 x[27] + 27.53 x[28] + 14.8 x[29]
   + 16.85 x[30] + 94.32 x[31] + 61.18 x[32] + 77.32 x[33] + 29.02 x[34]
   + 172.58 x[35] + 173.28 x[36] + 119.62 x[37] + 70.26 x[38] + 57.07 x[39]
   + 165.6 x[40] + 73.86 x[41] + 90.35 x[42] + 147.51 x[43] + 131.66 x[44]
   + 81.44 x[45] + 109.57 x[46] + 13.51 x[47] + 120.79 x[48] + 143.28 x[49]
   + 115.07 x[50] + 66.9 x[51] + 87.45 x[52] + 70.48 x[53] + 28.56 x[54]
   + 24.77 x[55] + 163.91 x[56] + 124.76 x[57] + 34.42 x[58] + 113.56 x[59]
   + 160.12 x[60] + 119.86 x[61] + 50.09 x[62] + 97.16 x[63] + 70.21 x[64]
   + 24.03 x[65] + 43.6 x[66] + 42.22 x[67] + 64.03 x[68] + 87.94 x[69]
   + 45.64 x[70] + 92.92 x[71] + 125.14 x[72] + 70.02 x[73] + 134.45 x[74]
   + 201.37 x[75] + 19.47 x[76] + 182.93 x[77] + 29.84 x[78] + 78.99 x[79]
   - 358 y[0] - 851 y[1] - 599 y[2] - 975 y[3] - 489 y[4] - 421 y[5]
   - 990 y[6] - 965 y[7] - 387 y[8] - 254 y[9] - 172 y[10] - 266 y[11]
   - 1036 y[12] - 590 y[13] - 814 y[14] - 580 y[15] - 172 y[16] - 187 y[17]
   - 389 y[18] - 811 y[19] - 346 y[20] - 124 y[21] - 934 y[22] - 1012 y[23]
   - 995 y[24] - 704 y[25] - 623 y[26] - 211 y[27] - 251 y[28] - 108 y[29]
   - 159 y[30] - 549 y[31] - 508 y[32] - 603 y[33] - 203 y[34] - 1003 y[35]
   - 944 y[36] - 655 y[37] - 561 y[38] - 314 y[39] - 860 y[40] - 470 y[41]
   - 466 y[42] - 896 y[43] - 1059 y[44] - 665 y[45] - 609 y[46] - 113 y[47]
   - 619 y[48] - 726 y[49] - 659 y[50] - 583 y[51] - 809 y[52] - 381 y[53]
   - 234 y[54] - 192 y[55] - 1044 y[56] - 743 y[57] - 242 y[58] - 793 y[59]
   - 1016 y[60] - 770 y[61] - 310 y[62] - 705 y[63] - 698 y[64] - 217 y[65]
   - 352 y[66] - 272 y[67] - 499 y[68] - 736 y[69] - 244 y[70] - 806 y[71]
   - 675 y[72] - 438 y[73] - 839 y[74] - 1008 y[75] - 171 y[76]
   - 1075 y[77] - 169 y[78] - 404 y[79]
Subject To
 primal_upper: 258 y[0] + 751 y[1] + 499 y[2] + 875 y[3] + 389 y[4]
   + 321 y[5] + 890 y[6] + 865 y[7] + 287 y[8] + 154 y[9] + 72 y[10]
   + 166 y[11] + 936 y[12] + 490 y[13] + 714 y[14] + 480 y[15] + 72 y[16]
   + 87 y[17] + 289 y[18] + 711 y[19] + 246 y[20] + 24 y[21] + 834 y[22]
   + 912 y[23] + 895 y[24] + 604 y[25] + 523 y[26] + 111 y[27] + 151 y[28]
   + 8 y[29] + 59 y[30] + 449 y[31] + 408 y[32] + 503 y[33] + 103 y[34]
   + 903 y[35] + 844 y[36] + 555 y[37] + 461 y[38] + 214 y[39] + 760 y[40]
   + 370 y[41] + 366 y[42] + 796 y[43] + 959 y[44] + 565 y[45] + 509 y[46]
   + 13 y[47] + 519 y[48] + 626 y[49] + 559 y[50] + 483 y[51] + 709 y[52]
   + 281 y[53] + 134 y[54] + 92 y[55] + 944 y[56] + 643 y[57] + 142 y[58]
   + 693 y[59] + 916 y[60] + 670 y[61] + 210 y[62] + 605 y[63] + 598 y[64]
   + 117 y[65] + 252 y[66] + 172 y[67] + 399 y[68] + 636 y[69] + 144 y[70]
   + 706 y[71] + 575 y[72] + 338 y[73] + 739 y[74] + 908 y[75] + 71 y[76]
   + 975 y[77] + 69 y[78] + 304 y[79] + 26 z[0] + 75 z[1] + 50 z[2]
   + 88 z[3] + 39 z[4] + 32 z[5] + 89 z[6] + 86 z[7] + 29 z[8] + 15 z[9]
   + 7 z[10] + 17 z[11] + 94 z[12] + 49 z[13] + 71 z[14] + 48 z[15]
   + 7 z[16] + 9 z[17] + 29 z[18] + 71 z[19] + 25 z[20] + 2 z[21]
   + 83 z[22] + 91 z[23] + 90 z[24] + 60 z[25] + 52 z[26] + 11 z[27]
   + 15 z[28] + z[29] + 6 z[30] + 45 z[31] + 41 z[32] + 50 z[33] + 10 z[34]
   + 90 z[35] + 84 z[36] + 56 z[37] + 46 z[38] + 21 z[39] + 76 z[40]
   + 37 z[41] + 37 z[42] + 80 z[43] + 96 z[44] + 56 z[45] + 51 z[46]
   + z[47] + 52 z[48] + 63 z[49] + 56 z[50] + 48 z[51] + 71 z[52]
   + 28 z[53] + 13 z[54] + 9 z[55] + 94 z[56] + 64 z[57] + 14 z[58]
   + 69 z[59] + 92 z[60] + 67 z[61] + 21 z[62] + 60 z[63] + 60 z[64]
   + 12 z[65] + 25 z[66] + 17 z[67] + 40 z[68] + 64 z[69] + 14 z[70]
   + 71 z[71] + 58 z[72] + 34 z[73] + 74 z[74] + 91 z[75] + 7 z[76]
   + 98 z[77] + 7 z[78] + 30 z[79] <= 6280
 primal_lower0: 572 u[0] + 41 u[1] + 685 u[2] + 509 u[3] + 431 u[4]
   + 955 u[5] + 420 u[6] + 259 u[7] + 25 u[8] + 44 u[9] + 658 u[10]
   + 824 u[11] + 442 u[12] + 836 u[13] + 684 u[14] + 594 u[15] + 850 u[16]
   + 705 u[17] + 739 u[18] + 665 u[19] + 208 u[20] + 474 u[21] + 428 u[22]
   + 386 u[23] + 385 u[24] + 614 u[25] + 5 u[26] + 41 u[27] + 257 u[28]
   + 626 u[29] + 677 u[30] + 403 u[31] + 922 u[32] + 697 u[33] + 721 u[34]
   + 569 u[35] + 726 u[36] + 733 u[37] + 95 u[38] + 936 u[39] + 866 u[40]
   + 12 u[41] + 696 u[42] + 750 u[43] + 969 u[44] + 383 u[45] + 343 u[46]
   + 839 u[47] + 577 u[48] + 532 u[49] + 737 u[50] + 29 u[51] + 183 u[52]
   + 99 u[53] + 816 u[54] + 726 u[55] + 682 u[56] + 685 u[57] + 840 u[58]
   + 575 u[59] + 454 u[60] + 432 u[61] + 436 u[62] + 311 u[63] + 240 u[64]
   + 895 u[65] + 62 u[66] + 62 u[67] + 961 u[68] + 414 u[69] + 466 u[70]
   + 468 u[71] + 105 u[72] + 292 u[73] + 781 u[74] + 150 u[75] + 161 u[76]
   + 49 u[77] + 151 u[78] + 122 u[79] <= 26128
 interdiction[0]: x[0] + u[0] <= 1
 interdiction[1]: x[1] + u[1] <= 1
 interdiction[2]: x[2] + u[2] <= 1
 interdiction[3]: x[3] + u[3] <= 1
 interdiction[4]: x[4] + u[4] <= 1
 interdiction[5]: x[5] + u[5] <= 1
 interdiction[6]: x[6] + u[6] <= 1
 interdiction[7]: x[7] + u[7] <= 1
 interdiction[8]: x[8] + u[8] <= 1
 interdiction[9]: x[9] + u[9] <= 1
 interdiction[10]: x[10] + u[10] <= 1
 interdiction[11]: x[11] + u[11] <= 1
 interdiction[12]: x[12] + u[12] <= 1
 interdiction[13]: x[13] + u[13] <= 1
 interdiction[14]: x[14] + u[14] <= 1
 interdiction[15]: x[15] + u[15] <= 1
 interdiction[16]: x[16] + u[16] <= 1
 interdiction[17]: x[17] + u[17] <= 1
 interdiction[18]: x[18] + u[18] <= 1
 interdiction[19]: x[19] + u[19] <= 1
 interdiction[20]: x[20] + u[20] <= 1
 interdiction[21]: x[21] + u[21] <= 1
 interdiction[22]: x[22] + u[22] <= 1
 interdiction[23]: x[23] + u[23] <= 1
 interdiction[24]: x[24] + u[24] <= 1
 interdiction[25]: x[25] + u[25] <= 1
 interdiction[26]: x[26] + u[26] <= 1
 interdiction[27]: x[27] + u[27] <= 1
 interdiction[28]: x[28] + u[28] <= 1
 interdiction[29]: x[29] + u[29] <= 1
 interdiction[30]: x[30] + u[30] <= 1
 interdiction[31]: x[31] + u[31] <= 1
 interdiction[32]: x[32] + u[32] <= 1
 interdiction[33]: x[33] + u[33] <= 1
 interdiction[34]: x[34] + u[34] <= 1
 interdiction[35]: x[35] + u[35] <= 1
 interdiction[36]: x[36] + u[36] <= 1
 interdiction[37]: x[37] + u[37] <= 1
 interdiction[38]: x[38] + u[38] <= 1
 interdiction[39]: x[39] + u[39] <= 1
 interdiction[40]: x[40] + u[40] <= 1
 interdiction[41]: x[41] + u[41] <= 1
 interdiction[42]: x[42] + u[42] <= 1
 interdiction[43]: x[43] + u[43] <= 1
 interdiction[44]: x[44] + u[44] <= 1
 interdiction[45]: x[45] + u[45] <= 1
 interdiction[46]: x[46] + u[46] <= 1
 interdiction[47]: x[47] + u[47] <= 1
 interdiction[48]: x[48] + u[48] <= 1
 interdiction[49]: x[49] + u[49] <= 1
 interdiction[50]: x[50] + u[50] <= 1
 interdiction[51]: x[51] + u[51] <= 1
 interdiction[52]: x[52] + u[52] <= 1
 interdiction[53]: x[53] + u[53] <= 1
 interdiction[54]: x[54] + u[54] <= 1
 interdiction[55]: x[55] + u[55] <= 1
 interdiction[56]: x[56] + u[56] <= 1
 interdiction[57]: x[57] + u[57] <= 1
 interdiction[58]: x[58] + u[58] <= 1
 interdiction[59]: x[59] + u[59] <= 1
 interdiction[60]: x[60] + u[60] <= 1
 interdiction[61]: x[61] + u[61] <= 1
 interdiction[62]: x[62] + u[62] <= 1
 interdiction[63]: x[63] + u[63] <= 1
 interdiction[64]: x[64] + u[64] <= 1
 interdiction[65]: x[65] + u[65] <= 1
 interdiction[66]: x[66] + u[66] <= 1
 interdiction[67]: x[67] + u[67] <= 1
 interdiction[68]: x[68] + u[68] <= 1
 interdiction[69]: x[69] + u[69] <= 1
 interdiction[70]: x[70] + u[70] <= 1
 interdiction[71]: x[71] + u[71] <= 1
 interdiction[72]: x[72] + u[72] <= 1
 interdiction[73]: x[73] + u[73] <= 1
 interdiction[74]: x[74] + u[74] <= 1
 interdiction[75]: x[75] + u[75] <= 1
 interdiction[76]: x[76] + u[76] <= 1
 interdiction[77]: x[77] + u[77] <= 1
 interdiction[78]: x[78] + u[78] <= 1
 interdiction[79]: x[79] + u[79] <= 1
 mccormick1[0]: - u[0] + z[0] <= 0
 mccormick1[1]: - u[1] + z[1] <= 0
 mccormick1[2]: - u[2] + z[2] <= 0
 mccormick1[3]: - u[3] + z[3] <= 0
 mccormick1[4]: - u[4] + z[4] <= 0
 mccormick1[5]: - u[5] + z[5] <= 0
 mccormick1[6]: - u[6] + z[6] <= 0
 mccormick1[7]: - u[7] + z[7] <= 0
 mccormick1[8]: - u[8] + z[8] <= 0
 mccormick1[9]: - u[9] + z[9] <= 0
 mccormick1[10]: - u[10] + z[10] <= 0
 mccormick1[11]: - u[11] + z[11] <= 0
 mccormick1[12]: - u[12] + z[12] <= 0
 mccormick1[13]: - u[13] + z[13] <= 0
 mccormick1[14]: - u[14] + z[14] <= 0
 mccormick1[15]: - u[15] + z[15] <= 0
 mccormick1[16]: - u[16] + z[16] <= 0
 mccormick1[17]: - u[17] + z[17] <= 0
 mccormick1[18]: - u[18] + z[18] <= 0
 mccormick1[19]: - u[19] + z[19] <= 0
 mccormick1[20]: - u[20] + z[20] <= 0
 mccormick1[21]: - u[21] + z[21] <= 0
 mccormick1[22]: - u[22] + z[22] <= 0
 mccormick1[23]: - u[23] + z[23] <= 0
 mccormick1[24]: - u[24] + z[24] <= 0
 mccormick1[25]: - u[25] + z[25] <= 0
 mccormick1[26]: - u[26] + z[26] <= 0
 mccormick1[27]: - u[27] + z[27] <= 0
 mccormick1[28]: - u[28] + z[28] <= 0
 mccormick1[29]: - u[29] + z[29] <= 0
 mccormick1[30]: - u[30] + z[30] <= 0
 mccormick1[31]: - u[31] + z[31] <= 0
 mccormick1[32]: - u[32] + z[32] <= 0
 mccormick1[33]: - u[33] + z[33] <= 0
 mccormick1[34]: - u[34] + z[34] <= 0
 mccormick1[35]: - u[35] + z[35] <= 0
 mccormick1[36]: - u[36] + z[36] <= 0
 mccormick1[37]: - u[37] + z[37] <= 0
 mccormick1[38]: - u[38] + z[38] <= 0
 mccormick1[39]: - u[39] + z[39] <= 0
 mccormick1[40]: - u[40] + z[40] <= 0
 mccormick1[41]: - u[41] + z[41] <= 0
 mccormick1[42]: - u[42] + z[42] <= 0
 mccormick1[43]: - u[43] + z[43] <= 0
 mccormick1[44]: - u[44] + z[44] <= 0
 mccormick1[45]: - u[45] + z[45] <= 0
 mccormick1[46]: - u[46] + z[46] <= 0
 mccormick1[47]: - u[47] + z[47] <= 0
 mccormick1[48]: - u[48] + z[48] <= 0
 mccormick1[49]: - u[49] + z[49] <= 0
 mccormick1[50]: - u[50] + z[50] <= 0
 mccormick1[51]: - u[51] + z[51] <= 0
 mccormick1[52]: - u[52] + z[52] <= 0
 mccormick1[53]: - u[53] + z[53] <= 0
 mccormick1[54]: - u[54] + z[54] <= 0
 mccormick1[55]: - u[55] + z[55] <= 0
 mccormick1[56]: - u[56] + z[56] <= 0
 mccormick1[57]: - u[57] + z[57] <= 0
 mccormick1[58]: - u[58] + z[58] <= 0
 mccormick1[59]: - u[59] + z[59] <= 0
 mccormick1[60]: - u[60] + z[60] <= 0
 mccormick1[61]: - u[61] + z[61] <= 0
 mccormick1[62]: - u[62] + z[62] <= 0
 mccormick1[63]: - u[63] + z[63] <= 0
 mccormick1[64]: - u[64] + z[64] <= 0
 mccormick1[65]: - u[65] + z[65] <= 0
 mccormick1[66]: - u[66] + z[66] <= 0
 mccormick1[67]: - u[67] + z[67] <= 0
 mccormick1[68]: - u[68] + z[68] <= 0
 mccormick1[69]: - u[69] + z[69] <= 0
 mccormick1[70]: - u[70] + z[70] <= 0
 mccormick1[71]: - u[71] + z[71] <= 0
 mccormick1[72]: - u[72] + z[72] <= 0
 mccormick1[73]: - u[73] + z[73] <= 0
 mccormick1[74]: - u[74] + z[74] <= 0
 mccormick1[75]: - u[75] + z[75] <= 0
 mccormick1[76]: - u[76] + z[76] <= 0
 mccormick1[77]: - u[77] + z[77] <= 0
 mccormick1[78]: - u[78] + z[78] <= 0
 mccormick1[79]: - u[79] + z[79] <= 0
 mccormick2[0]: - y[0] + z[0] <= 0
 mccormick2[1]: - y[1] + z[1] <= 0
 mccormick2[2]: - y[2] + z[2] <= 0
 mccormick2[3]: - y[3] + z[3] <= 0
 mccormick2[4]: - y[4] + z[4] <= 0
 mccormick2[5]: - y[5] + z[5] <= 0
 mccormick2[6]: - y[6] + z[6] <= 0
 mccormick2[7]: - y[7] + z[7] <= 0
 mccormick2[8]: - y[8] + z[8] <= 0
 mccormick2[9]: - y[9] + z[9] <= 0
 mccormick2[10]: - y[10] + z[10] <= 0
 mccormick2[11]: - y[11] + z[11] <= 0
 mccormick2[12]: - y[12] + z[12] <= 0
 mccormick2[13]: - y[13] + z[13] <= 0
 mccormick2[14]: - y[14] + z[14] <= 0
 mccormick2[15]: - y[15] + z[15] <= 0
 mccormick2[16]: - y[16] + z[16] <= 0
 mccormick2[17]: - y[17] + z[17] <= 0
 mccormick2[18]: - y[18] + z[18] <= 0
 mccormick2[19]: - y[19] + z[19] <= 0
 mccormick2[20]: - y[20] + z[20] <= 0
 mccormick2[21]: - y[21] + z[21] <= 0
 mccormick2[22]: - y[22] + z[22] <= 0
 mccormick2[23]: - y[23] + z[23] <= 0
 mccormick2[24]: - y[24] + z[24] <= 0
 mccormick2[25]: - y[25] + z[25] <= 0
 mccormick2[26]: - y[26] + z[26] <= 0
 mccormick2[27]: - y[27] + z[27] <= 0
 mccormick2[28]: - y[28] + z[28] <= 0
 mccormick2[29]: - y[29] + z[29] <= 0
 mccormick2[30]: - y[30] + z[30] <= 0
 mccormick2[31]: - y[31] + z[31] <= 0
 mccormick2[32]: - y[32] + z[32] <= 0
 mccormick2[33]: - y[33] + z[33] <= 0
 mccormick2[34]: - y[34] + z[34] <= 0
 mccormick2[35]: - y[35] + z[35] <= 0
 mccormick2[36]: - y[36] + z[36] <= 0
 mccormick2[37]: - y[37] + z[37] <= 0
 mccormick2[38]: - y[38] + z[38] <= 0
 mccormick2[39]: - y[39] + z[39] <= 0
 mccormick2[40]: - y[40] + z[40] <= 0
 mccormick2[41]: - y[41] + z[41] <= 0
 mccormick2[42]: - y[42] + z[42] <= 0
 mccormick2[43]: - y[43] + z[43] <= 0
 mccormick2[44]: - y[44] + z[44] <= 0
 mccormick2[45]: - y[45] + z[45] <= 0
 mccormick2[46]: - y[46] + z[46] <= 0
 mccormick2[47]: - y[47] + z[47] <= 0
 mccormick2[48]: - y[48] + z[48] <= 0
 mccormick2[49]: - y[49] + z[49] <= 0
 mccormick2[50]: - y[50] + z[50] <= 0
 mccormick2[51]: - y[51] + z[51] <= 0
 mccormick2[52]: - y[52] + z[52] <= 0
 mccormick2[53]: - y[53] + z[53] <= 0
 mccormick2[54]: - y[54] + z[54] <= 0
 mccormick2[55]: - y[55] + z[55] <= 0
 mccormick2[56]: - y[56] + z[56] <= 0
 mccormick2[57]: - y[57] + z[57] <= 0
 mccormick2[58]: - y[58] + z[58] <= 0
 mccormick2[59]: - y[59] + z[59] <= 0
 mccormick2[60]: - y[60] + z[60] <= 0
 mccormick2[61]: - y[61] + z[61] <= 0
 mccormick2[62]: - y[62] + z[62] <= 0
 mccormick2[63]: - y[63] + z[63] <= 0
 mccormick2[64]: - y[64] + z[64] <= 0
 mccormick2[65]: - y[65] + z[65] <= 0
 mccormick2[66]: - y[66] + z[66] <= 0
 mccormick2[67]: - y[67] + z[67] <= 0
 mccormick2[68]: - y[68] + z[68] <= 0
 mccormick2[69]: - y[69] + z[69] <= 0
 mccormick2[70]: - y[70] + z[70] <= 0
 mccormick2[71]: - y[71] + z[71] <= 0
 mccormick2[72]: - y[72] + z[72] <= 0
 mccormick2[73]: - y[73] + z[73] <= 0
 mccormick2[74]: - y[74] + z[74] <= 0
 mccormick2[75]: - y[75] + z[75] <= 0
 mccormick2[76]: - y[76] + z[76] <= 0
 mccormick2[77]: - y[77] + z[77] <= 0
 mccormick2[78]: - y[78] + z[78] <= 0
 mccormick2[79]: - y[79] + z[79] <= 0
 mccormick3[0]: y[0] + u[0] - z[0] <= 1
 mccormick3[1]: y[1] + u[1] - z[1] <= 1
 mccormick3[2]: y[2] + u[2] - z[2] <= 1
 mccormick3[3]: y[3] + u[3] - z[3] <= 1
 mccormick3[4]: y[4] + u[4] - z[4] <= 1
 mccormick3[5]: y[5] + u[5] - z[5] <= 1
 mccormick3[6]: y[6] + u[6] - z[6] <= 1
 mccormick3[7]: y[7] + u[7] - z[7] <= 1
 mccormick3[8]: y[8] + u[8] - z[8] <= 1
 mccormick3[9]: y[9] + u[9] - z[9] <= 1
 mccormick3[10]: y[10] + u[10] - z[10] <= 1
 mccormick3[11]: y[11] + u[11] - z[11] <= 1
 mccormick3[12]: y[12] + u[12] - z[12] <= 1
 mccormick3[13]: y[13] + u[13] - z[13] <= 1
 mccormick3[14]: y[14] + u[14] - z[14] <= 1
 mccormick3[15]: y[15] + u[15] - z[15] <= 1
 mccormick3[16]: y[16] + u[16] - z[16] <= 1
 mccormick3[17]: y[17] + u[17] - z[17] <= 1
 mccormick3[18]: y[18] + u[18] - z[18] <= 1
 mccormick3[19]: y[19] + u[19] - z[19] <= 1
 mccormick3[20]: y[20] + u[20] - z[20] <= 1
 mccormick3[21]: y[21] + u[21] - z[21] <= 1
 mccormick3[22]: y[22] + u[22] - z[22] <= 1
 mccormick3[23]: y[23] + u[23] - z[23] <= 1
 mccormick3[24]: y[24] + u[24] - z[24] <= 1
 mccormick3[25]: y[25] + u[25] - z[25] <= 1
 mccormick3[26]: y[26] + u[26] - z[26] <= 1
 mccormick3[27]: y[27] + u[27] - z[27] <= 1
 mccormick3[28]: y[28] + u[28] - z[28] <= 1
 mccormick3[29]: y[29] + u[29] - z[29] <= 1
 mccormick3[30]: y[30] + u[30] - z[30] <= 1
 mccormick3[31]: y[31] + u[31] - z[31] <= 1
 mccormick3[32]: y[32] + u[32] - z[32] <= 1
 mccormick3[33]: y[33] + u[33] - z[33] <= 1
 mccormick3[34]: y[34] + u[34] - z[34] <= 1
 mccormick3[35]: y[35] + u[35] - z[35] <= 1
 mccormick3[36]: y[36] + u[36] - z[36] <= 1
 mccormick3[37]: y[37] + u[37] - z[37] <= 1
 mccormick3[38]: y[38] + u[38] - z[38] <= 1
 mccormick3[39]: y[39] + u[39] - z[39] <= 1
 mccormick3[40]: y[40] + u[40] - z[40] <= 1
 mccormick3[41]: y[41] + u[41] - z[41] <= 1
 mccormick3[42]: y[42] + u[42] - z[42] <= 1
 mccormick3[43]: y[43] + u[43] - z[43] <= 1
 mccormick3[44]: y[44] + u[44] - z[44] <= 1
 mccormick3[45]: y[45] + u[45] - z[45] <= 1
 mccormick3[46]: y[46] + u[46] - z[46] <= 1
 mccormick3[47]: y[47] + u[47] - z[47] <= 1
 mccormick3[48]: y[48] + u[48] - z[48] <= 1
 mccormick3[49]: y[49] + u[49] - z[49] <= 1
 mccormick3[50]: y[50] + u[50] - z[50] <= 1
 mccormick3[51]: y[51] + u[51] - z[51] <= 1
 mccormick3[52]: y[52] + u[52] - z[52] <= 1
 mccormick3[53]: y[53] + u[53] - z[53] <= 1
 mccormick3[54]: y[54] + u[54] - z[54] <= 1
 mccormick3[55]: y[55] + u[55] - z[55] <= 1
 mccormick3[56]: y[56] + u[56] - z[56] <= 1
 mccormick3[57]: y[57] + u[57] - z[57] <= 1
 mccormick3[58]: y[58] + u[58] - z[58] <= 1
 mccormick3[59]: y[59] + u[59] - z[59] <= 1
 mccormick3[60]: y[60] + u[60] - z[60] <= 1
 mccormick3[61]: y[61] + u[61] - z[61] <= 1
 mccormick3[62]: y[62] + u[62] - z[62] <= 1
 mccormick3[63]: y[63] + u[63] - z[63] <= 1
 mccormick3[64]: y[64] + u[64] - z[64] <= 1
 mccormick3[65]: y[65] + u[65] - z[65] <= 1
 mccormick3[66]: y[66] + u[66] - z[66] <= 1
 mccormick3[67]: y[67] + u[67] - z[67] <= 1
 mccormick3[68]: y[68] + u[68] - z[68] <= 1
 mccormick3[69]: y[69] + u[69] - z[69] <= 1
 mccormick3[70]: y[70] + u[70] - z[70] <= 1
 mccormick3[71]: y[71] + u[71] - z[71] <= 1
 mccormick3[72]: y[72] + u[72] - z[72] <= 1
 mccormick3[73]: y[73] + u[73] - z[73] <= 1
 mccormick3[74]: y[74] + u[74] - z[74] <= 1
 mccormick3[75]: y[75] + u[75] - z[75] <= 1
 mccormick3[76]: y[76] + u[76] - z[76] <= 1
 mccormick3[77]: y[77] + u[77] - z[77] <= 1
 mccormick3[78]: y[78] + u[78] - z[78] <= 1
 mccormick3[79]: y[79] + u[79] - z[79] <= 1
Bounds
Binaries
 x[0] x[1] x[2] x[3] x[4] x[5] x[6] x[7] x[8] x[9] x[10] x[11] x[12] x[13]
 x[14] x[15] x[16] x[17] x[18] x[19] x[20] x[21] x[22] x[23] x[24] x[25]
 x[26] x[27] x[28] x[29] x[30] x[31] x[32] x[33] x[34] x[35] x[36] x[37]
 x[38] x[39] x[40] x[41] x[42] x[43] x[44] x[45] x[46] x[47] x[48] x[49]
 x[50] x[51] x[52] x[53] x[54] x[55] x[56] x[57] x[58] x[59] x[60] x[61]
 x[62] x[63] x[64] x[65] x[66] x[67] x[68] x[69] x[70] x[71] x[72] x[73]
 x[74] x[75] x[76] x[77] x[78] x[79] y[0] y[1] y[2] y[3] y[4] y[5] y[6]
 y[7] y[8] y[9] y[10] y[11] y[12] y[13] y[14] y[15] y[16] y[17] y[18] y[19]
 y[20] y[21] y[22] y[23] y[24] y[25] y[26] y[27] y[28] y[29] y[30] y[31]
 y[32] y[33] y[34] y[35] y[36] y[37] y[38] y[39] y[40] y[41] y[42] y[43]
 y[44] y[45] y[46] y[47] y[48] y[49] y[50] y[51] y[52] y[53] y[54] y[55]
 y[56] y[57] y[58] y[59] y[60] y[61] y[62] y[63] y[64] y[65] y[66] y[67]
 y[68] y[69] y[70] y[71] y[72] y[73] y[74] y[75] y[76] y[77] y[78] y[79]
 u[0] u[1] u[2] u[3] u[4] u[5] u[6] u[7] u[8] u[9] u[10] u[11] u[12] u[13]
 u[14] u[15] u[16] u[17] u[18] u[19] u[20] u[21] u[22] u[23] u[24] u[25]
 u[26] u[27] u[28] u[29] u[30] u[31] u[32] u[33] u[34] u[35] u[36] u[37]
 u[38] u[39] u[40] u[41] u[42] u[43] u[44] u[45] u[46] u[47] u[48] u[49]
 u[50] u[51] u[52] u[53] u[54] u[55] u[56] u[57] u[58] u[59] u[60] u[61]
 u[62] u[63] u[64] u[65] u[66] u[67] u[68] u[69] u[70] u[71] u[72] u[73]
 u[74] u[75] u[76] u[77] u[78] u[79] z[0] z[1] z[2] z[3] z[4] z[5] z[6]
 z[7] z[8] z[9] z[10] z[11] z[12] z[13] z[14] z[15] z[16] z[17] z[18] z[19]
 z[20] z[21] z[22] z[23] z[24] z[25] z[26] z[27] z[28] z[29] z[30] z[31]
 z[32] z[33] z[34] z[35] z[36] z[37] z[38] z[39] z[40] z[41] z[42] z[43]
 z[44] z[45] z[46] z[47] z[48] z[49] z[50] z[51] z[52] z[53] z[54] z[55]
 z[56] z[57] z[58] z[59] z[60] z[61] z[62] z[63] z[64] z[65] z[66] z[67]
 z[68] z[69] z[70] z[71] z[72] z[73] z[74] z[75] z[76] z[77] z[78] z[79]
End
